NAME: st70.heu.tour
TYPE: TOUR
COMMENT: Heuristic tour (Lin-Kernighan), length 685.97
DIMENSION: 70
TOUR_SECTION
1
16
47
37
58
50
51
56
65
64
11
67
48
54
62
39
25
45
61
40
46
27
9
68
44
30
20
14
3
32
8
28
49
55
26
19
7
2
4
18
42
6
41
43
17
21
34
12
33
60
52
10
5
53
66
22
59
63
57
24
15
35
70
29
13
31
69
38
23
36
-1
EOF
